
Gurobi 6.5.2 (linux64) logging started Tue Sep  6 10:06:17 2016

Optimize a model with 41 rows, 115 columns and 231 nonzeros
Coefficient statistics:
  Matrix range    [1e+00, 2e+00]
  Objective range [4e+00, 1e+02]
  Bounds range    [1e+00, 1e+00]
  RHS range       [1e+00, 1e+00]
Presolve removed 21 rows and 20 columns
Presolve time: 0.00s
Presolved: 20 rows, 95 columns, 190 nonzeros
Variable types: 0 continuous, 95 integer (95 binary)

Root relaxation: objective 6.020000e+02, 25 iterations, 0.00 seconds

    Nodes    |    Current Node    |     Objective Bounds      |     Work
 Expl Unexpl |  Obj  Depth IntInf | Incumbent    BestBd   Gap | It/Node Time

*    0     0               0     602.0000000  602.00000  0.00%     -    0s

Cutting planes:
  Lazy constraints: 2

Explored 0 nodes (25 simplex iterations) in 0.00 seconds
Thread count was 8 (of 8 available processors)

Optimal solution found (tolerance 1.00e-04)
Best objective 6.020000000000e+02, best bound 6.020000000000e+02, gap 0.0%
